data/OOEBPP/R1000/BPP_1000_150_0.2_0.7_0.txt.ins
1000
150 150
1 105 562
2 105 224
3 105 98
4 105 997
5 105 894
6 105 425
7 105 542
8 105 103
9 105 371
10 104 851
11 104 145
12 104 641
13 104 329
14 104 271
15 104 286
16 104 706
17 104 131
18 104 624
19 104 221
20 104 542
21 104 814
22 104 874
23 104 166
24 104 929
25 104 706
26 104 8
27 104 819
28 104 977
29 104 248
30 104 328
31 103 864
32 103 678
33 103 913
34 103 147
35 103 286
36 103 278
37 103 407
38 103 53
39 103 959
40 103 605
41 102 537
42 102 732
43 102 444
44 102 639
45 102 269
46 102 357
47 102 642
48 102 472
49 102 289
50 102 673
51 102 856
52 102 399
53 102 137
54 102 468
55 101 283
56 101 643
57 101 448
58 101 330
59 101 834
60 101 404
61 101 171
62 101 629
63 101 351
64 101 370
65 101 958
66 100 833
67 100 898
68 100 38
69 100 50
70 100 969
71 100 377
72 100 143
73 100 716
74 100 524
75 100 283
76 100 267
77 99 705
78 99 647
79 99 114
80 99 382
81 99 455
82 99 150
83 99 774
84 99 532
85 98 979
86 98 954
87 98 486
88 98 84
89 98 577
90 98 515
91 98 854
92 98 973
93 98 276
94 98 657
95 98 318
96 98 653
97 98 676
98 97 722
99 97 458
100 97 846
101 97 880
102 97 64
103 97 592
104 97 1000
105 97 541
106 97 163
107 97 683
108 96 596
109 96 979
110 96 617
111 96 858
112 96 95
113 96 554
114 96 561
115 96 651
116 96 266
117 96 180
118 96 78
119 96 495
120 96 454
121 96 389
122 96 822
123 95 42
124 95 298
125 95 311
126 95 9
127 95 634
128 95 478
129 95 876
130 95 971
131 95 136
132 95 456
133 95 983
134 95 754
135 95 904
136 95 490
137 95 692
138 95 517
139 95 875
140 94 680
141 94 584
142 94 63
143 94 440
144 94 623
145 94 891
146 94 691
147 94 244
148 94 700
149 94 840
150 94 736
151 94 383
152 93 921
153 93 963
154 93 178
155 93 546
156 93 264
157 93 852
158 93 826
159 93 611
160 93 353
161 93 920
162 93 965
163 93 648
164 93 475
165 93 146
166 93 640
167 92 20
168 92 283
169 92 473
170 92 180
171 92 944
172 92 141
173 92 896
174 92 557
175 92 518
176 92 499
177 92 412
178 92 654
179 92 74
180 92 692
181 91 390
182 91 698
183 91 598
184 91 978
185 91 844
186 91 403
187 91 23
188 91 640
189 90 571
190 90 555
191 90 127
192 90 133
193 90 201
194 90 418
195 90 955
196 90 162
197 90 372
198 89 229
199 89 869
200 89 283
201 89 245
202 89 553
203 89 65
204 89 700
205 89 223
206 89 286
207 89 319
208 88 136
209 88 674
210 88 791
211 88 588
212 88 646
213 88 191
214 88 375
215 88 3
216 88 530
217 88 779
218 88 884
219 88 76
220 88 660
221 88 769
222 88 935
223 88 780
224 88 347
225 87 806
226 87 790
227 87 742
228 87 775
229 87 899
230 87 220
231 87 111
232 87 129
233 87 891
234 87 848
235 87 162
236 87 609
237 87 819
238 87 1000
239 86 544
240 86 75
241 86 986
242 86 964
243 86 298
244 86 739
245 86 658
246 86 166
247 86 247
248 86 950
249 86 221
250 86 678
251 86 33
252 85 852
253 85 176
254 85 848
255 85 70
256 85 0
257 85 107
258 85 117
259 85 904
260 85 740
261 85 755
262 84 258
263 84 347
264 84 497
265 84 762
266 84 94
267 84 804
268 84 984
269 84 429
270 84 763
271 84 173
272 84 525
273 84 896
274 84 546
275 84 651
276 84 174
277 84 971
278 84 231
279 84 589
280 83 284
281 83 55
282 83 354
283 83 22
284 83 487
285 83 428
286 83 199
287 83 142
288 83 12
289 83 378
290 83 96
291 83 838
292 82 122
293 82 128
294 82 950
295 82 277
296 82 125
297 82 711
298 82 426
299 82 417
300 82 295
301 82 884
302 82 265
303 82 924
304 82 117
305 81 339
306 81 563
307 81 85
308 81 448
309 81 980
310 81 335
311 81 565
312 81 242
313 81 290
314 81 557
315 81 197
316 81 862
317 81 205
318 81 513
319 81 732
320 81 535
321 81 246
322 81 469
323 81 92
324 80 238
325 80 212
326 80 194
327 80 827
328 80 445
329 80 241
330 80 930
331 80 199
332 80 711
333 80 859
334 80 417
335 80 491
336 80 751
337 80 886
338 80 849
339 79 377
340 79 872
341 79 219
342 79 302
343 79 652
344 79 389
345 79 71
346 79 517
347 79 441
348 79 800
349 79 907
350 79 161
351 79 938
352 79 338
353 79 478
354 79 425
355 79 836
356 78 536
357 78 332
358 78 549
359 78 703
360 78 950
361 78 684
362 78 311
363 78 357
364 78 561
365 78 734
366 78 841
367 78 503
368 78 863
369 78 596
370 77 980
371 77 808
372 77 498
373 77 927
374 77 520
375 77 420
376 77 545
377 77 458
378 77 925
379 77 150
380 77 16
381 77 819
382 76 304
383 76 394
384 76 432
385 76 235
386 76 959
387 76 398
388 76 965
389 76 580
390 76 66
391 76 665
392 76 532
393 75 271
394 75 265
395 75 222
396 75 71
397 75 749
398 75 534
399 75 948
400 75 435
401 75 334
402 75 130
403 75 205
404 75 805
405 74 760
406 74 937
407 74 751
408 74 26
409 74 66
410 74 459
411 74 651
412 74 880
413 74 167
414 74 640
415 74 563
416 74 54
417 74 15
418 73 581
419 73 123
420 73 499
421 73 169
422 73 295
423 73 181
424 73 688
425 73 485
426 73 910
427 72 789
428 72 844
429 72 36
430 72 759
431 72 23
432 72 320
433 72 474
434 72 850
435 72 205
436 72 118
437 72 224
438 71 319
439 71 100
440 71 628
441 71 377
442 71 993
443 71 448
444 71 194
445 71 426
446 71 738
447 71 583
448 71 643
449 71 502
450 71 81
451 71 586
452 71 295
453 71 164
454 71 613
455 71 513
456 70 404
457 70 966
458 70 387
459 70 289
460 70 155
461 70 31
462 70 586
463 70 446
464 70 298
465 69 148
466 69 617
467 69 498
468 69 17
469 69 834
470 69 88
471 69 169
472 69 85
473 69 516
474 69 900
475 69 783
476 69 966
477 69 381
478 69 367
479 69 467
480 68 564
481 68 187
482 68 232
483 68 187
484 68 978
485 68 854
486 68 927
487 68 539
488 68 804
489 68 797
490 68 36
491 68 303
492 68 427
493 68 872
494 67 762
495 67 230
496 67 694
497 67 296
498 67 85
499 67 847
500 67 861
501 67 334
502 67 378
503 67 43
504 67 774
505 67 147
506 66 140
507 66 656
508 66 351
509 66 254
510 66 324
511 66 475
512 66 765
513 66 582
514 66 898
515 66 110
516 66 252
517 66 947
518 66 505
519 66 247
520 66 272
521 66 349
522 66 833
523 66 463
524 66 602
525 66 554
526 65 203
527 65 285
528 65 370
529 65 873
530 65 353
531 65 313
532 65 200
533 65 916
534 65 275
535 65 730
536 65 314
537 65 203
538 64 728
539 64 774
540 64 90
541 64 63
542 64 513
543 64 953
544 64 951
545 64 17
546 64 401
547 64 445
548 64 256
549 64 216
550 64 430
551 64 991
552 63 509
553 63 1000
554 63 701
555 63 166
556 63 155
557 63 998
558 63 973
559 63 601
560 63 981
561 63 673
562 63 575
563 63 881
564 62 985
565 62 467
566 62 94
567 62 464
568 62 946
569 62 990
570 62 586
571 62 751
572 62 483
573 62 396
574 62 48
575 62 203
576 62 692
577 62 241
578 61 359
579 61 327
580 61 504
581 61 494
582 61 65
583 61 8
584 61 707
585 61 864
586 61 692
587 61 483
588 60 876
589 60 953
590 60 875
591 60 495
592 60 340
593 60 43
594 60 241
595 60 279
596 60 980
597 60 983
598 60 978
599 60 203
600 60 723
601 59 866
602 59 307
603 59 471
604 59 869
605 59 806
606 59 522
607 59 166
608 59 545
609 59 10
610 59 170
611 58 158
612 58 609
613 58 352
614 58 29
615 58 217
616 58 951
617 58 876
618 58 349
619 58 607
620 58 310
621 58 789
622 58 92
623 58 764
624 58 979
625 58 675
626 57 682
627 57 684
628 57 535
629 57 965
630 57 487
631 57 496
632 57 154
633 57 121
634 57 621
635 57 108
636 57 279
637 57 337
638 57 168
639 57 3
640 57 569
641 56 360
642 56 199
643 56 660
644 56 578
645 56 18
646 56 137
647 56 694
648 56 283
649 56 57
650 56 199
651 56 32
652 56 37
653 55 394
654 55 283
655 55 611
656 55 947
657 55 891
658 55 353
659 55 125
660 55 867
661 55 20
662 55 522
663 55 48
664 55 928
665 55 964
666 55 108
667 54 551
668 54 682
669 54 62
670 54 225
671 54 755
672 54 250
673 54 788
674 54 968
675 54 963
676 54 16
677 54 329
678 54 724
679 54 210
680 54 379
681 54 846
682 53 763
683 53 230
684 53 125
685 53 455
686 53 336
687 53 736
688 53 318
689 53 461
690 53 752
691 52 964
692 52 433
693 52 204
694 52 635
695 52 782
696 52 873
697 52 104
698 52 549
699 52 625
700 52 418
701 52 543
702 52 685
703 52 669
704 52 517
705 52 831
706 51 416
707 51 484
708 51 757
709 51 330
710 51 838
711 51 364
712 51 315
713 51 614
714 50 137
715 50 465
716 50 509
717 50 858
718 50 523
719 50 121
720 50 610
721 50 150
722 50 141
723 50 151
724 50 161
725 50 358
726 50 38
727 50 35
728 50 112
729 50 680
730 49 32
731 49 175
732 49 780
733 49 283
734 49 430
735 49 402
736 49 119
737 49 910
738 49 688
739 49 435
740 49 538
741 48 942
742 48 563
743 48 465
744 48 455
745 48 336
746 48 675
747 48 644
748 48 603
749 48 692
750 48 594
751 48 413
752 47 635
753 47 299
754 47 397
755 47 331
756 47 89
757 47 274
758 47 641
759 47 722
760 47 572
761 47 165
762 47 830
763 47 313
764 47 341
765 46 371
766 46 538
767 46 251
768 46 412
769 46 111
770 46 545
771 46 801
772 46 432
773 46 273
774 46 679
775 46 142
776 46 293
777 46 420
778 45 858
779 45 657
780 45 574
781 45 923
782 45 226
783 45 616
784 45 234
785 45 40
786 45 517
787 45 533
788 45 688
789 45 275
790 45 646
791 45 415
792 45 818
793 45 593
794 45 44
795 45 236
796 44 897
797 44 513
798 44 367
799 44 232
800 44 557
801 44 7
802 44 732
803 44 486
804 44 161
805 44 28
806 44 244
807 44 365
808 44 800
809 44 705
810 44 749
811 44 129
812 44 705
813 44 810
814 43 920
815 43 673
816 43 291
817 43 47
818 43 754
819 43 40
820 43 174
821 43 494
822 43 136
823 43 858
824 43 252
825 43 893
826 43 553
827 43 170
828 43 92
829 43 236
830 43 546
831 43 265
832 43 657
833 42 607
834 42 837
835 42 105
836 42 480
837 42 636
838 42 611
839 42 578
840 42 834
841 42 117
842 42 41
843 42 737
844 42 519
845 42 982
846 42 146
847 42 189
848 41 541
849 41 87
850 41 327
851 41 909
852 41 71
853 41 990
854 41 171
855 41 741
856 41 237
857 41 496
858 40 887
859 40 543
860 40 735
861 40 285
862 40 44
863 40 401
864 40 14
865 40 434
866 40 701
867 40 981
868 40 492
869 40 19
870 40 651
871 39 636
872 39 961
873 39 21
874 39 540
875 39 628
876 39 282
877 39 873
878 39 516
879 39 940
880 39 347
881 39 392
882 39 861
883 39 53
884 38 501
885 38 98
886 38 205
887 38 649
888 38 802
889 38 153
890 38 894
891 37 424
892 37 643
893 37 20
894 37 733
895 37 840
896 37 766
897 37 542
898 37 602
899 37 951
900 37 511
901 37 463
902 36 660
903 36 740
904 36 261
905 36 981
906 36 956
907 36 129
908 36 925
909 36 448
910 36 747
911 36 960
912 36 369
913 36 625
914 36 689
915 35 322
916 35 115
917 35 279
918 35 155
919 35 355
920 35 690
921 35 117
922 35 351
923 35 201
924 35 456
925 35 142
926 35 462
927 34 659
928 34 501
929 34 562
930 34 325
931 34 53
932 34 260
933 34 137
934 34 16
935 34 852
936 34 372
937 34 380
938 34 401
939 34 365
940 34 355
941 34 787
942 34 710
943 33 46
944 33 728
945 33 961
946 33 176
947 33 931
948 33 505
949 33 835
950 33 122
951 33 471
952 33 533
953 32 234
954 32 332
955 32 447
956 32 238
957 32 954
958 32 597
959 32 473
960 32 315
961 32 418
962 32 83
963 32 964
964 32 264
965 32 128
966 32 519
967 31 777
968 31 421
969 31 127
970 31 769
971 31 379
972 31 708
973 31 664
974 31 372
975 31 297
976 31 345
977 31 121
978 31 814
979 31 307
980 31 545
981 31 798
982 31 343
983 31 408
984 31 212
985 30 538
986 30 858
987 30 360
988 30 268
989 30 844
990 30 534
991 30 380
992 30 918
993 30 724
994 30 5
995 30 232
996 30 742
997 30 616
998 30 673
999 30 93
1000 30 692
