results/OOEBPP/BPP_1000_150_0.2_0.7_0.txt.ins.log
276,275.946,141.166,OPT,12864,0,0,AI,0,0.119565,2.85507,0.813212,138.504,0,2,0,120,120
